Route #1: 1 44 5 29 6 8 40 51 21 24
Route #2: 1 53 31 17 33 7 11 16 36 30 19
Route #3: 1 26 48 42 47 52 43 25 3 13 35
Route #4: 1 50 37 2 46 27 18 39 12 14
Route #5: 1 54 23 4 32 20
Route #6: 1 15 28 38 49 41 9
Route #7: 1 22 34 10 45
cost 1299
